15	2	2
1943	1943	
856	511	926	
402	197	319	
110	342	551	
257	767	1081	
372	724	814	
258	623	637	
486	519	894	
132	15	22	
790	600	1026	
275	856	899	
40	867	1477	
933	640	1127	
749	126	203	
396	731	987	
673	257	509	
